
ACE v2.3 

  instance
    name:restricted_gardener

  Loading variables...

  Loading constraints...

  domains
    types:2  values:36  sizes:[2:4,4:7]
  variables
    count:11  arrays:3  degrees:[2:2,3:6,4:1,5:2]
  constraints
    count:12  specific:6  arities:[1:2,3:7,4:2,5:1]
    distribution:[AllDifferentComplete:1,Extension1:2,Intension:6,Maximum:2,SumWeightedEQ:1]
    intStructures:(2,shared:4)
    wck:0.10  cpu:0.468  mem:14M616

  Building solver... 

  solver
    guaranteedAC:false
    wck:0.11  cpu:0.468  mem:17M551

  preprocessing
    effs:2  revisions:(18,useless=18)  values:32  removedByAC:4  unsat:false
    wck:0.001  cpu:0.468  mem:17M551

    run1  dpts:1..10  effs:22  fails:2  wrgs:2  wck:0.00  ngds:2  sols:1

  global
    effs:22  revisions:(106,useless=102)  ngds:2
    stop:REACHED_GOAL  wrgs:2  sols:1  sol1Cpu:0.484
    wck:0.11  cpu:0.484  mem:17M971


  Solution 1 in JSON format:
   {
    garden: [1, 4, 3, 2],
    number_visible_hedge: 2,
    is_visible: [1, 1, 0, 0],
    aux_gb: [4, 4]
   }

s SATISFIABLE

v <instantiation id='sol1' type='solution'> <list> garden[] number_visible_hedge is_visible[] aux_gb[] </list> <values> 1 4 3 2   2   1 1 0 0   4 4 </values> </instantiation>

d WRONG DECISIONS 2
d FOUND SOLUTIONS 1
d INCOMPLETE EXPLORATION

c real time : 0.484
